p edge 20 41 8
v 3 1 3 5
v 1 11
v 1 12
v 2 4 16
v 3 8 13 15
v 4 7 10 14 17
v 1 18
v 5 2 6 9 19 20
e 1 2
e 1 4
e 1 17
e 1 18
e 2 3
e 2 14
e 3 7
e 3 8
e 3 19
e 4 12
e 4 20
e 5 6
e 5 8
e 5 10
e 5 12
e 6 8
e 6 10
e 6 14
e 6 16
e 6 19
e 7 9
e 7 11
e 7 16
e 7 18
e 8 12
e 8 18
e 9 16
e 9 17
e 10 14
e 10 16
e 12 19
e 13 17
e 13 19
e 14 15
e 14 20
e 15 18
e 15 20
e 16 20
e 17 19
e 18 19
e 19 20
